0	28	57	28	41	120	176	63	27	20	152	
183	0	187	132	199	126	181	63	95	144	42	
93	44	0	100	170	111	49	171	84	37	90	
109	53	193	0	164	134	179	135	106	85	62	
63	28	47	86	0	196	21	185	186	123	145	
115	140	167	92	120	0	144	184	106	190	86	
176	57	36	55	48	113	0	33	185	195	140	
30	181	24	82	25	112	117	0	162	116	159	
29	178	190	28	48	85	176	148	0	155	179	
143	170	80	122	171	68	33	151	104	0	183	
157	48	54	171	121	117	74	39	110	90	0	
